NAME : A-n44-k7-30
TYPE : VRP-D
DIMENSION : 30
CAPACITY : 100
NODE_COORD_SECTION 
 1 14 68
 2 73 2
 3 13 47
 4 37 44
 5 34 63
 6 58 98
 7 33 42
 8 18 98
 9 24 79
 10 17 28
 11 72 67
 12 78 63
 13 42 48
 14 1 2
 15 2 28
 16 32 82
 17 97 38
 18 39 53
 19 87 1
 20 42 77
 21 83 27
 22 79 92
 23 22 39
 24 58 32
 25 53 84
 26 38 37
 27 63 59
 28 42 88
 29 32 88
 30 38 23
DEMAND_SECTION 
1 0 
2 8 
3 24 
4 9 
5 19 
6 9 
7 18 
8 9 
9 14 
10 3 
11 14 
12 8 
13 8 
14 13 
15 18 
16 4 
17 24 
18 14 
19 8 
20 18 
21 13 
22 2 
23 9 
24 18 
25 3 
26 24 
27 8 
28 24 
29 14 
30 13 
DEPOT_SECTION 
 1  
 -1  
EOF 
